5

    74    88    69    39    68
    81    60    21    21    54
    34    66    82    61    26
    1    51    82    98    84
    12    86    8    77    4

    0    22    68    54    95
    22    0    1    89    32
    68    1    0    91    92
    54    89    91    0    85
    95    32    92    85    0

    55    31    8    50    68
    6    90    74    77    86
    92    29    85    91    67
    57    65    36    96    44
    19    59    77    91    58
